Route #1: 46 50 11 7 27 43 16
Route #2: 39 36 1 49 35 19 20 14
Route #3: 4 42 34 6 64 40 44 53
Route #4: 62 61 30 57 3 60
Route #5: 9 48 21 25 63
Route #6: 5 28 13
Route #7: 58 56 15 55 54 22 52 45 12
Route #8: 31 18 26 2 47 33
Route #9: 65 37 23 8 32 51 66
Route #10: 17 38 10 29 24 59 41
Cost 1032
Time 0.258674
